local_stuff/sygus_stuff/sygus_inv_oai/sygus_cvc5/cvc_output_1sec/97_conf1.out
STDOUT:
(
(define-fun inv-f ((i Int) (j Int) (conf_0 Int) (x Int) (y Int) (i_0 Int) (i_1 Int) (i_2 Int) (i_3 Int) (j_0 Int) (j_1 Int) (j_2 Int) (j_3 Int) (conf_0_0 Int) (conf_0_1 Int) (conf_0_2 Int) (conf_0_3 Int) (x_0 Int) (y_0 Int) (y_1 Int)) Bool (and (= y 2) (or (not (= i i_2)) (not (= j j_2)) (not (= conf_0 conf_0_1)) (not (= x x_0)) (not (>= (+ i_2 (* (- 1) x_0)) 1)) (not (= y_1 1)) (= i_2 j_2) (not (= y_1 2)))))
)
